Route #1: 0 6 24 13 41 40 19 4 18 0
Route #2: 0 32 22 20 21 34 9 10 39 15 17 5 0
Route #3: 0 2 35 3 1 14 25 12 0
Route #4: 0 27 23 43 7 8 31 36 29 11 38 37 0
Route #5: 0 26 28 16 30 33 44 42 0
Cost 761:
